p cnf 47 160
1 2 -3 0
-1 -2 -3 0
1 -2 3 0
-1 2 3 0
-6 -4 0
-6 5 0
4 -5 6 0
7 3 0
7 6 0
-3 -6 -7 0
-10 -9 0
-10 -5 0
9 5 10 0
-10 11 -12 0
10 -11 -12 0
-10 -11 12 0
10 11 12 0
-13 8 0
-13 -12 0
-8 12 13 0
15 -14 0
15 -9 0
14 9 -15 0
-16 4 0
-16 -9 0
-4 9 16 0
-17 -15 0
-17 -16 0
15 16 17 0
5 2 -18 0
-5 -2 -18 0
5 -2 18 0
-5 2 18 0
19 8 0
19 -18 0
-8 18 -19 0
20 -17 0
20 -19 0
17 19 -20 0
13 20 -21 0
-13 -20 -21 0
13 -20 21 0
-13 20 21 0
22 2 -23 0
-22 -2 -23 0
22 -2 23 0
-22 2 23 0
-15 11 -24 0
15 -11 -24 0
-15 -11 24 0
15 11 24 0
24 5 -25 0
-24 -5 -25 0
24 -5 25 0
-24 5 25 0
-26 -23 0
-26 25 0
23 -25 26 0
27 8 0
27 2 0
-8 -2 -27 0
-28 -8 0
-28 -11 0
8 11 28 0
29 -27 0
29 -28 0
27 28 -29 0
-30 -26 0
-30 -29 0
26 29 30 0
31 -15 0
31 -2 0
15 2 -31 0
-16 31 -32 0
16 -31 -32 0
-16 -31 32 0
16 31 32 0
-33 -5 0
-33 32 0
5 -32 33 0
34 -9 0
34 -15 0
9 15 -34 0
-35 33 0
-35 34 0
-33 -34 35 0
36 30 0
36 -35 0
-30 35 -36 0
-37 21 0
-37 -36 0
-21 36 37 0
38 7 0
38 -37 0
-7 37 -38 0
40 39 0
40 1 0
-39 -1 -40 0
11 -40 -41 0
-11 40 -41 0
11 40 41 0
-11 -40 41 0
-42 5 0
-42 31 0
-5 -31 42 0
-41 -42 -43 0
41 42 -43 0
-41 42 43 0
41 -42 43 0
43 -2 -44 0
-43 2 -44 0
43 2 44 0
-43 -2 44 0
-45 -15 0
-45 9 0
15 -9 45 0
46 -44 0
46 45 0
44 -45 -46 0
-47 38 0
-47 46 0
-38 -46 47 0
43 20 -19 32 13 0
-24 -31 0
23 -2 0
-22 38 0
4 31 -25 14 -2 34 0
11 41 -34 -45 0
-44 -25 21 16 8 26 0
11 18 -21 0
-23 7 -4 0
10 23 -22 40 0
13 42 25 -11 0
-20 -8 33 0
-4 43 0
10 -23 25 -47 46 0
-37 -35 31 15 -36 40 0
-44 12 0
-26 45 -10 0
5 24 -31 0
8 33 20 1 -40 -18 0
-45 -27 0
-19 -9 47 0
35 2 -1 -17 -14 8 0
-3 30 29 6 23 0
12 -4 0
22 -37 42 -28 -38 14 0
33 -12 32 0
2 -6 28 -36 42 41 0
-17 -6 -25 39 -9 0
-18 8 30 0
2 -11 7 -27 0
-12 8 0
38 -28 20 22 0
25 11 -20 -14 -9 0
45 43 -14 15 -22 0
-25 -26 8 0
39 -6 -11 -35 0
-36 -35 0
47 0
